unsat
(:max-memory          18.04
 :memory              17.91
 :nlsat-conflicts     3
 :nlsat-learned-added 2
 :nlsat-propagations  9
 :nlsat-stages        3
 :num-allocs          6356
 :rlimit-count        2560
 :time                0.00
 :total-time          0.01)
